(set-info :category "industrial")
(set-info :status sat)
(declare-fun x00 () (_ BitVec 8))
(declare-fun x01 () (_ BitVec 8))
(declare-fun x02 () (_ BitVec 8))
(declare-fun x05 () (_ BitVec 8))
(declare-fun x06 () (_ BitVec 8))
(declare-fun x08 () (_ BitVec 8))
(declare-fun x10 () (_ BitVec 8))
(declare-fun x13 () (_ BitVec 8))
(declare-fun x16 () (_ BitVec 8))
(declare-fun x17 () (_ BitVec 8))
(declare-fun x22 () (_ BitVec 8))
(declare-fun x24 () (_ BitVec 8))
(declare-fun x25 () (_ BitVec 8))
(declare-fun x26 () (_ BitVec 8))
(declare-fun x28 () (_ BitVec 8))
(declare-fun x30 () (_ BitVec 8))
(declare-fun x33 () (_ BitVec 8))
(declare-fun x34 () (_ BitVec 8))
(declare-fun x36 () (_ BitVec 8))
(declare-fun x38 () (_ BitVec 8))
(declare-fun x41 () (_ BitVec 8))
(declare-fun x42 () (_ BitVec 8))
(declare-fun x44 () (_ BitVec 8))
(declare-fun x46 () (_ BitVec 8))
(declare-fun x48 () (_ BitVec 8))
(declare-fun x50 () (_ BitVec 8))
(declare-fun x51 () (_ BitVec 8))
(declare-fun x53 () (_ BitVec 8))
(declare-fun x56 () (_ BitVec 8))
(declare-fun x57 () (_ BitVec 8))
(declare-fun x62 () (_ BitVec 8))
(declare-fun x65 () (_ BitVec 8))
(declare-fun x66 () (_ BitVec 8))
(declare-fun x67 () (_ BitVec 8))
(declare-fun x68 () (_ BitVec 8))
(declare-fun x70 () (_ BitVec 8))
(declare-fun x71 () (_ BitVec 8))
(declare-fun x73 () (_ BitVec 8))
(declare-fun x74 () (_ BitVec 8))
(declare-fun x75 () (_ BitVec 8))
(declare-fun x77 () (_ BitVec 8))
(declare-fun x78 () (_ BitVec 8))
(declare-fun x82 () (_ BitVec 8))
(declare-fun x83 () (_ BitVec 8))
(declare-fun x84 () (_ BitVec 8))
(declare-fun x85 () (_ BitVec 8))
(declare-fun x86 () (_ BitVec 8))
(assert (bvult x00 (_ bv9 8)))
(assert (bvult x01 (_ bv9 8)))
(assert (bvult x02 (_ bv9 8)))
(assert (bvult x05 (_ bv9 8)))
(assert (bvult x06 (_ bv9 8)))
(assert (bvult x08 (_ bv9 8)))
(assert (bvult x10 (_ bv9 8)))
(assert (bvult x13 (_ bv9 8)))
(assert (bvult x16 (_ bv9 8)))
(assert (bvult x17 (_ bv9 8)))
(assert (bvult x22 (_ bv9 8)))
(assert (bvult x24 (_ bv9 8)))
(assert (bvult x25 (_ bv9 8)))
(assert (bvult x26 (_ bv9 8)))
(assert (bvult x28 (_ bv9 8)))
(assert (bvult x30 (_ bv9 8)))
(assert (bvult x33 (_ bv9 8)))
(assert (bvult x34 (_ bv9 8)))
(assert (bvult x36 (_ bv9 8)))
(assert (bvult x38 (_ bv9 8)))
(assert (bvult x41 (_ bv9 8)))
(assert (bvult x42 (_ bv9 8)))
(assert (bvult x44 (_ bv9 8)))
(assert (bvult x46 (_ bv9 8)))
(assert (bvult x48 (_ bv9 8)))
(assert (bvult x50 (_ bv9 8)))
(assert (bvult x51 (_ bv9 8)))
(assert (bvult x53 (_ bv9 8)))
(assert (bvult x56 (_ bv9 8)))
(assert (bvult x57 (_ bv9 8)))
(assert (bvult x62 (_ bv9 8)))
(assert (bvult x65 (_ bv9 8)))
(assert (bvult x66 (_ bv9 8)))
(assert (bvult x67 (_ bv9 8)))
(assert (bvult x68 (_ bv9 8)))
(assert (bvult x70 (_ bv9 8)))
(assert (bvult x71 (_ bv9 8)))
(assert (bvult x73 (_ bv9 8)))
(assert (bvult x74 (_ bv9 8)))
(assert (bvult x75 (_ bv9 8)))
(assert (bvult x77 (_ bv9 8)))
(assert (bvult x78 (_ bv9 8)))
(assert (bvult x82 (_ bv9 8)))
(assert (bvult x83 (_ bv9 8)))
(assert (bvult x84 (_ bv9 8)))
(assert (bvult x85 (_ bv9 8)))
(assert (bvult x86 (_ bv9 8)))
(assert (not (= x00 x01)))
(assert (not (= x00 x02)))
(assert (not (= x00 (_ bv2 8))))
(assert (not (= x00 (_ bv4 8))))
(assert (not (= x00 x05)))
(assert (not (= x00 x06)))
(assert (not (= x00 (_ bv6 8))))
(assert (not (= x00 x08)))
(assert (not (= x01 x02)))
(assert (not (= x01 (_ bv2 8))))
(assert (not (= x01 (_ bv4 8))))
(assert (not (= x01 x05)))
(assert (not (= x01 x06)))
(assert (not (= x01 (_ bv6 8))))
(assert (not (= x01 x08)))
(assert (not (= x02 (_ bv2 8))))
(assert (not (= x02 (_ bv4 8))))
(assert (not (= x02 x05)))
(assert (not (= x02 x06)))
(assert (not (= x02 (_ bv6 8))))
(assert (not (= x02 x08)))
(assert (not (= (_ bv2 8) (_ bv4 8))))
(assert (not (= (_ bv2 8) x05)))
(assert (not (= (_ bv2 8) x06)))
(assert (not (= (_ bv2 8) (_ bv6 8))))
(assert (not (= (_ bv2 8) x08)))
(assert (not (= (_ bv4 8) x05)))
(assert (not (= (_ bv4 8) x06)))
(assert (not (= (_ bv4 8) (_ bv6 8))))
(assert (not (= (_ bv4 8) x08)))
(assert (not (= x05 x06)))
(assert (not (= x05 (_ bv6 8))))
(assert (not (= x05 x08)))
(assert (not (= x06 (_ bv6 8))))
(assert (not (= x06 x08)))
(assert (not (= (_ bv6 8) x08)))
(assert (not (= x10 (_ bv4 8))))
(assert (not (= x10 (_ bv3 8))))
(assert (not (= x10 x13)))
(assert (not (= x10 (_ bv8 8))))
(assert (not (= x10 (_ bv1 8))))
(assert (not (= x10 x16)))
(assert (not (= x10 x17)))
(assert (not (= x10 (_ bv5 8))))
(assert (not (= (_ bv4 8) (_ bv3 8))))
(assert (not (= (_ bv4 8) x13)))
(assert (not (= (_ bv4 8) (_ bv8 8))))
(assert (not (= (_ bv4 8) (_ bv1 8))))
(assert (not (= (_ bv4 8) x16)))
(assert (not (= (_ bv4 8) x17)))
(assert (not (= (_ bv4 8) (_ bv5 8))))
(assert (not (= (_ bv3 8) x13)))
(assert (not (= (_ bv3 8) (_ bv8 8))))
(assert (not (= (_ bv3 8) (_ bv1 8))))
(assert (not (= (_ bv3 8) x16)))
(assert (not (= (_ bv3 8) x17)))
(assert (not (= (_ bv3 8) (_ bv5 8))))
(assert (not (= x13 (_ bv8 8))))
(assert (not (= x13 (_ bv1 8))))
(assert (not (= x13 x16)))
(assert (not (= x13 x17)))
(assert (not (= x13 (_ bv5 8))))
(assert (not (= (_ bv8 8) (_ bv1 8))))
(assert (not (= (_ bv8 8) x16)))
(assert (not (= (_ bv8 8) x17)))
(assert (not (= (_ bv8 8) (_ bv5 8))))
(assert (not (= (_ bv1 8) x16)))
(assert (not (= (_ bv1 8) x17)))
(assert (not (= (_ bv1 8) (_ bv5 8))))
(assert (not (= x16 x17)))
(assert (not (= x16 (_ bv5 8))))
(assert (not (= x17 (_ bv5 8))))
(assert (not (= (_ bv7 8) (_ bv9 8))))
(assert (not (= (_ bv7 8) x22)))
(assert (not (= (_ bv7 8) (_ bv3 8))))
(assert (not (= (_ bv7 8) x24)))
(assert (not (= (_ bv7 8) x25)))
(assert (not (= (_ bv7 8) x26)))
(assert (not (= (_ bv7 8) (_ bv1 8))))
(assert (not (= (_ bv7 8) x28)))
(assert (not (= (_ bv9 8) x22)))
(assert (not (= (_ bv9 8) (_ bv3 8))))
(assert (not (= (_ bv9 8) x24)))
(assert (not (= (_ bv9 8) x25)))
(assert (not (= (_ bv9 8) x26)))
(assert (not (= (_ bv9 8) (_ bv1 8))))
(assert (not (= (_ bv9 8) x28)))
(assert (not (= x22 (_ bv3 8))))
(assert (not (= x22 x24)))
(assert (not (= x22 x25)))
(assert (not (= x22 x26)))
(assert (not (= x22 (_ bv1 8))))
(assert (not (= x22 x28)))
(assert (not (= (_ bv3 8) x24)))
(assert (not (= (_ bv3 8) x25)))
(assert (not (= (_ bv3 8) x26)))
(assert (not (= (_ bv3 8) (_ bv1 8))))
(assert (not (= (_ bv3 8) x28)))
(assert (not (= x24 x25)))
(assert (not (= x24 x26)))
(assert (not (= x24 (_ bv1 8))))
(assert (not (= x24 x28)))
(assert (not (= x25 x26)))
(assert (not (= x25 (_ bv1 8))))
(assert (not (= x25 x28)))
(assert (not (= x26 (_ bv1 8))))
(assert (not (= x26 x28)))
(assert (not (= (_ bv1 8) x28)))
(assert (not (= x30 (_ bv1 8))))
(assert (not (= x30 (_ bv6 8))))
(assert (not (= x30 x33)))
(assert (not (= x30 x34)))
(assert (not (= x30 (_ bv5 8))))
(assert (not (= x30 x36)))
(assert (not (= x30 (_ bv8 8))))
(assert (not (= x30 x38)))
(assert (not (= (_ bv1 8) (_ bv6 8))))
(assert (not (= (_ bv1 8) x33)))
(assert (not (= (_ bv1 8) x34)))
(assert (not (= (_ bv1 8) (_ bv5 8))))
(assert (not (= (_ bv1 8) x36)))
(assert (not (= (_ bv1 8) (_ bv8 8))))
(assert (not (= (_ bv1 8) x38)))
(assert (not (= (_ bv6 8) x33)))
(assert (not (= (_ bv6 8) x34)))
(assert (not (= (_ bv6 8) (_ bv5 8))))
(assert (not (= (_ bv6 8) x36)))
(assert (not (= (_ bv6 8) (_ bv8 8))))
(assert (not (= (_ bv6 8) x38)))
(assert (not (= x33 x34)))
(assert (not (= x33 (_ bv5 8))))
(assert (not (= x33 x36)))
(assert (not (= x33 (_ bv8 8))))
(assert (not (= x33 x38)))
(assert (not (= x34 (_ bv5 8))))
(assert (not (= x34 x36)))
(assert (not (= x34 (_ bv8 8))))
(assert (not (= x34 x38)))
(assert (not (= (_ bv5 8) x36)))
(assert (not (= (_ bv5 8) (_ bv8 8))))
(assert (not (= (_ bv5 8) x38)))
(assert (not (= x36 (_ bv8 8))))
(assert (not (= x36 x38)))
(assert (not (= (_ bv8 8) x38)))
(assert (not (= (_ bv2 8) x41)))
(assert (not (= (_ bv2 8) x42)))
(assert (not (= (_ bv2 8) (_ bv1 8))))
(assert (not (= (_ bv2 8) x44)))
(assert (not (= (_ bv2 8) (_ bv8 8))))
(assert (not (= (_ bv2 8) x46)))
(assert (not (= (_ bv2 8) (_ bv9 8))))
(assert (not (= (_ bv2 8) x48)))
(assert (not (= x41 x42)))
(assert (not (= x41 (_ bv1 8))))
(assert (not (= x41 x44)))
(assert (not (= x41 (_ bv8 8))))
(assert (not (= x41 x46)))
(assert (not (= x41 (_ bv9 8))))
(assert (not (= x41 x48)))
(assert (not (= x42 (_ bv1 8))))
(assert (not (= x42 x44)))
(assert (not (= x42 (_ bv8 8))))
(assert (not (= x42 x46)))
(assert (not (= x42 (_ bv9 8))))
(assert (not (= x42 x48)))
(assert (not (= (_ bv1 8) x44)))
(assert (not (= (_ bv1 8) (_ bv8 8))))
(assert (not (= (_ bv1 8) x46)))
(assert (not (= (_ bv1 8) (_ bv9 8))))
(assert (not (= (_ bv1 8) x48)))
(assert (not (= x44 (_ bv8 8))))
(assert (not (= x44 x46)))
(assert (not (= x44 (_ bv9 8))))
(assert (not (= x44 x48)))
(assert (not (= (_ bv8 8) x46)))
(assert (not (= (_ bv8 8) (_ bv9 8))))
(assert (not (= (_ bv8 8) x48)))
(assert (not (= x46 (_ bv9 8))))
(assert (not (= x46 x48)))
(assert (not (= (_ bv9 8) x48)))
(assert (not (= x50 x51)))
(assert (not (= x50 (_ bv5 8))))
(assert (not (= x50 x53)))
(assert (not (= x50 (_ bv2 8))))
(assert (not (= x50 (_ bv7 8))))
(assert (not (= x50 x56)))
(assert (not (= x50 x57)))
(assert (not (= x50 (_ bv4 8))))
(assert (not (= x51 (_ bv5 8))))
(assert (not (= x51 x53)))
(assert (not (= x51 (_ bv2 8))))
(assert (not (= x51 (_ bv7 8))))
(assert (not (= x51 x56)))
(assert (not (= x51 x57)))
(assert (not (= x51 (_ bv4 8))))
(assert (not (= (_ bv5 8) x53)))
(assert (not (= (_ bv5 8) (_ bv2 8))))
(assert (not (= (_ bv5 8) (_ bv7 8))))
(assert (not (= (_ bv5 8) x56)))
(assert (not (= (_ bv5 8) x57)))
(assert (not (= (_ bv5 8) (_ bv4 8))))
(assert (not (= x53 (_ bv2 8))))
(assert (not (= x53 (_ bv7 8))))
(assert (not (= x53 x56)))
(assert (not (= x53 x57)))
(assert (not (= x53 (_ bv4 8))))
(assert (not (= (_ bv2 8) (_ bv7 8))))
(assert (not (= (_ bv2 8) x56)))
(assert (not (= (_ bv2 8) x57)))
(assert (not (= (_ bv2 8) (_ bv4 8))))
(assert (not (= (_ bv7 8) x56)))
(assert (not (= (_ bv7 8) x57)))
(assert (not (= (_ bv7 8) (_ bv4 8))))
(assert (not (= x56 x57)))
(assert (not (= x56 (_ bv4 8))))
(assert (not (= x57 (_ bv4 8))))
(assert (not (= (_ bv4 8) (_ bv2 8))))
(assert (not (= (_ bv4 8) x62)))
(assert (not (= (_ bv4 8) (_ bv9 8))))
(assert (not (= (_ bv4 8) (_ bv6 8))))
(assert (not (= (_ bv4 8) x65)))
(assert (not (= (_ bv4 8) x66)))
(assert (not (= (_ bv4 8) x67)))
(assert (not (= (_ bv4 8) x68)))
(assert (not (= (_ bv2 8) x62)))
(assert (not (= (_ bv2 8) (_ bv9 8))))
(assert (not (= (_ bv2 8) (_ bv6 8))))
(assert (not (= (_ bv2 8) x65)))
(assert (not (= (_ bv2 8) x66)))
(assert (not (= (_ bv2 8) x67)))
(assert (not (= (_ bv2 8) x68)))
(assert (not (= x62 (_ bv9 8))))
(assert (not (= x62 (_ bv6 8))))
(assert (not (= x62 x65)))
(assert (not (= x62 x66)))
(assert (not (= x62 x67)))
(assert (not (= x62 x68)))
(assert (not (= (_ bv9 8) (_ bv6 8))))
(assert (not (= (_ bv9 8) x65)))
(assert (not (= (_ bv9 8) x66)))
(assert (not (= (_ bv9 8) x67)))
(assert (not (= (_ bv9 8) x68)))
(assert (not (= (_ bv6 8) x65)))
(assert (not (= (_ bv6 8) x66)))
(assert (not (= (_ bv6 8) x67)))
(assert (not (= (_ bv6 8) x68)))
(assert (not (= x65 x66)))
(assert (not (= x65 x67)))
(assert (not (= x65 x68)))
(assert (not (= x66 x67)))
(assert (not (= x66 x68)))
(assert (not (= x67 x68)))
(assert (not (= x70 x71)))
(assert (not (= x70 (_ bv1 8))))
(assert (not (= x70 x73)))
(assert (not (= x70 x74)))
(assert (not (= x70 x75)))
(assert (not (= x70 (_ bv3 8))))
(assert (not (= x70 x77)))
(assert (not (= x70 x78)))
(assert (not (= x71 (_ bv1 8))))
(assert (not (= x71 x73)))
(assert (not (= x71 x74)))
(assert (not (= x71 x75)))
(assert (not (= x71 (_ bv3 8))))
(assert (not (= x71 x77)))
(assert (not (= x71 x78)))
(assert (not (= (_ bv1 8) x73)))
(assert (not (= (_ bv1 8) x74)))
(assert (not (= (_ bv1 8) x75)))
(assert (not (= (_ bv1 8) (_ bv3 8))))
(assert (not (= (_ bv1 8) x77)))
(assert (not (= (_ bv1 8) x78)))
(assert (not (= x73 x74)))
(assert (not (= x73 x75)))
(assert (not (= x73 (_ bv3 8))))
(assert (not (= x73 x77)))
(assert (not (= x73 x78)))
(assert (not (= x74 x75)))
(assert (not (= x74 (_ bv3 8))))
(assert (not (= x74 x77)))
(assert (not (= x74 x78)))
(assert (not (= x75 (_ bv3 8))))
(assert (not (= x75 x77)))
(assert (not (= x75 x78)))
(assert (not (= (_ bv3 8) x77)))
(assert (not (= (_ bv3 8) x78)))
(assert (not (= x77 x78)))
(assert (not (= (_ bv8 8) (_ bv3 8))))
(assert (not (= (_ bv8 8) x82)))
(assert (not (= (_ bv8 8) x83)))
(assert (not (= (_ bv8 8) x84)))
(assert (not (= (_ bv8 8) x85)))
(assert (not (= (_ bv8 8) x86)))
(assert (not (= (_ bv8 8) (_ bv7 8))))
(assert (not (= (_ bv8 8) (_ bv2 8))))
(assert (not (= (_ bv3 8) x82)))
(assert (not (= (_ bv3 8) x83)))
(assert (not (= (_ bv3 8) x84)))
(assert (not (= (_ bv3 8) x85)))
(assert (not (= (_ bv3 8) x86)))
(assert (not (= (_ bv3 8) (_ bv7 8))))
(assert (not (= (_ bv3 8) (_ bv2 8))))
(assert (not (= x82 x83)))
(assert (not (= x82 x84)))
(assert (not (= x82 x85)))
(assert (not (= x82 x86)))
(assert (not (= x82 (_ bv7 8))))
(assert (not (= x82 (_ bv2 8))))
(assert (not (= x83 x84)))
(assert (not (= x83 x85)))
(assert (not (= x83 x86)))
(assert (not (= x83 (_ bv7 8))))
(assert (not (= x83 (_ bv2 8))))
(assert (not (= x84 x85)))
(assert (not (= x84 x86)))
(assert (not (= x84 (_ bv7 8))))
(assert (not (= x84 (_ bv2 8))))
(assert (not (= x85 x86)))
(assert (not (= x85 (_ bv7 8))))
(assert (not (= x85 (_ bv2 8))))
(assert (not (= x86 (_ bv7 8))))
(assert (not (= x86 (_ bv2 8))))
(assert (not (= (_ bv7 8) (_ bv2 8))))
(assert (not (= x00 x10)))
(assert (not (= x00 (_ bv7 8))))
(assert (not (= x00 x30)))
(assert (not (= x00 (_ bv2 8))))
(assert (not (= x00 x50)))
(assert (not (= x00 (_ bv4 8))))
(assert (not (= x00 x70)))
(assert (not (= x00 (_ bv8 8))))
(assert (not (= x10 (_ bv7 8))))
(assert (not (= x10 x30)))
(assert (not (= x10 (_ bv2 8))))
(assert (not (= x10 x50)))
(assert (not (= x10 (_ bv4 8))))
(assert (not (= x10 x70)))
(assert (not (= x10 (_ bv8 8))))
(assert (not (= (_ bv7 8) x30)))
(assert (not (= (_ bv7 8) (_ bv2 8))))
(assert (not (= (_ bv7 8) x50)))
(assert (not (= (_ bv7 8) (_ bv4 8))))
(assert (not (= (_ bv7 8) x70)))
(assert (not (= (_ bv7 8) (_ bv8 8))))
(assert (not (= x30 (_ bv2 8))))
(assert (not (= x30 x50)))
(assert (not (= x30 (_ bv4 8))))
(assert (not (= x30 x70)))
(assert (not (= x30 (_ bv8 8))))
(assert (not (= (_ bv2 8) x50)))
(assert (not (= (_ bv2 8) (_ bv4 8))))
(assert (not (= (_ bv2 8) x70)))
(assert (not (= (_ bv2 8) (_ bv8 8))))
(assert (not (= x50 (_ bv4 8))))
(assert (not (= x50 x70)))
(assert (not (= x50 (_ bv8 8))))
(assert (not (= (_ bv4 8) x70)))
(assert (not (= (_ bv4 8) (_ bv8 8))))
(assert (not (= x70 (_ bv8 8))))
(assert (not (= x01 (_ bv4 8))))
(assert (not (= x01 (_ bv9 8))))
(assert (not (= x01 (_ bv1 8))))
(assert (not (= x01 x41)))
(assert (not (= x01 x51)))
(assert (not (= x01 (_ bv2 8))))
(assert (not (= x01 x71)))
(assert (not (= x01 (_ bv3 8))))
(assert (not (= (_ bv4 8) (_ bv9 8))))
(assert (not (= (_ bv4 8) (_ bv1 8))))
(assert (not (= (_ bv4 8) x41)))
(assert (not (= (_ bv4 8) x51)))
(assert (not (= (_ bv4 8) (_ bv2 8))))
(assert (not (= (_ bv4 8) x71)))
(assert (not (= (_ bv4 8) (_ bv3 8))))
(assert (not (= (_ bv9 8) (_ bv1 8))))
(assert (not (= (_ bv9 8) x41)))
(assert (not (= (_ bv9 8) x51)))
(assert (not (= (_ bv9 8) (_ bv2 8))))
(assert (not (= (_ bv9 8) x71)))
(assert (not (= (_ bv9 8) (_ bv3 8))))
(assert (not (= (_ bv1 8) x41)))
(assert (not (= (_ bv1 8) x51)))
(assert (not (= (_ bv1 8) (_ bv2 8))))
(assert (not (= (_ bv1 8) x71)))
(assert (not (= (_ bv1 8) (_ bv3 8))))
(assert (not (= x41 x51)))
(assert (not (= x41 (_ bv2 8))))
(assert (not (= x41 x71)))
(assert (not (= x41 (_ bv3 8))))
(assert (not (= x51 (_ bv2 8))))
(assert (not (= x51 x71)))
(assert (not (= x51 (_ bv3 8))))
(assert (not (= (_ bv2 8) x71)))
(assert (not (= (_ bv2 8) (_ bv3 8))))
(assert (not (= x71 (_ bv3 8))))
(assert (not (= x02 (_ bv3 8))))
(assert (not (= x02 x22)))
(assert (not (= x02 (_ bv6 8))))
(assert (not (= x02 x42)))
(assert (not (= x02 (_ bv5 8))))
(assert (not (= x02 x62)))
(assert (not (= x02 (_ bv1 8))))
(assert (not (= x02 x82)))
(assert (not (= (_ bv3 8) x22)))
(assert (not (= (_ bv3 8) (_ bv6 8))))
(assert (not (= (_ bv3 8) x42)))
(assert (not (= (_ bv3 8) (_ bv5 8))))
(assert (not (= (_ bv3 8) x62)))
(assert (not (= (_ bv3 8) (_ bv1 8))))
(assert (not (= (_ bv3 8) x82)))
(assert (not (= x22 (_ bv6 8))))
(assert (not (= x22 x42)))
(assert (not (= x22 (_ bv5 8))))
(assert (not (= x22 x62)))
(assert (not (= x22 (_ bv1 8))))
(assert (not (= x22 x82)))
(assert (not (= (_ bv6 8) x42)))
(assert (not (= (_ bv6 8) (_ bv5 8))))
(assert (not (= (_ bv6 8) x62)))
(assert (not (= (_ bv6 8) (_ bv1 8))))
(assert (not (= (_ bv6 8) x82)))
(assert (not (= x42 (_ bv5 8))))
(assert (not (= x42 x62)))
(assert (not (= x42 (_ bv1 8))))
(assert (not (= x42 x82)))
(assert (not (= (_ bv5 8) x62)))
(assert (not (= (_ bv5 8) (_ bv1 8))))
(assert (not (= (_ bv5 8) x82)))
(assert (not (= x62 (_ bv1 8))))
(assert (not (= x62 x82)))
(assert (not (= (_ bv1 8) x82)))
(assert (not (= (_ bv2 8) x13)))
(assert (not (= (_ bv2 8) (_ bv3 8))))
(assert (not (= (_ bv2 8) x33)))
(assert (not (= (_ bv2 8) (_ bv1 8))))
(assert (not (= (_ bv2 8) x53)))
(assert (not (= (_ bv2 8) (_ bv9 8))))
(assert (not (= (_ bv2 8) x73)))
(assert (not (= (_ bv2 8) x83)))
(assert (not (= x13 (_ bv3 8))))
(assert (not (= x13 x33)))
(assert (not (= x13 (_ bv1 8))))
(assert (not (= x13 x53)))
(assert (not (= x13 (_ bv9 8))))
(assert (not (= x13 x73)))
(assert (not (= x13 x83)))
(assert (not (= (_ bv3 8) x33)))
(assert (not (= (_ bv3 8) (_ bv1 8))))
(assert (not (= (_ bv3 8) x53)))
(assert (not (= (_ bv3 8) (_ bv9 8))))
(assert (not (= (_ bv3 8) x73)))
(assert (not (= (_ bv3 8) x83)))
(assert (not (= x33 (_ bv1 8))))
(assert (not (= x33 x53)))
(assert (not (= x33 (_ bv9 8))))
(assert (not (= x33 x73)))
(assert (not (= x33 x83)))
(assert (not (= (_ bv1 8) x53)))
(assert (not (= (_ bv1 8) (_ bv9 8))))
(assert (not (= (_ bv1 8) x73)))
(assert (not (= (_ bv1 8) x83)))
(assert (not (= x53 (_ bv9 8))))
(assert (not (= x53 x73)))
(assert (not (= x53 x83)))
(assert (not (= (_ bv9 8) x73)))
(assert (not (= (_ bv9 8) x83)))
(assert (not (= x73 x83)))
(assert (not (= (_ bv4 8) (_ bv8 8))))
(assert (not (= (_ bv4 8) x24)))
(assert (not (= (_ bv4 8) x34)))
(assert (not (= (_ bv4 8) x44)))
(assert (not (= (_ bv4 8) (_ bv2 8))))
(assert (not (= (_ bv4 8) (_ bv6 8))))
(assert (not (= (_ bv4 8) x74)))
(assert (not (= (_ bv4 8) x84)))
(assert (not (= (_ bv8 8) x24)))
(assert (not (= (_ bv8 8) x34)))
(assert (not (= (_ bv8 8) x44)))
(assert (not (= (_ bv8 8) (_ bv2 8))))
(assert (not (= (_ bv8 8) (_ bv6 8))))
(assert (not (= (_ bv8 8) x74)))
(assert (not (= (_ bv8 8) x84)))
(assert (not (= x24 x34)))
(assert (not (= x24 x44)))
(assert (not (= x24 (_ bv2 8))))
(assert (not (= x24 (_ bv6 8))))
(assert (not (= x24 x74)))
(assert (not (= x24 x84)))
(assert (not (= x34 x44)))
(assert (not (= x34 (_ bv2 8))))
(assert (not (= x34 (_ bv6 8))))
(assert (not (= x34 x74)))
(assert (not (= x34 x84)))
(assert (not (= x44 (_ bv2 8))))
(assert (not (= x44 (_ bv6 8))))
(assert (not (= x44 x74)))
(assert (not (= x44 x84)))
(assert (not (= (_ bv2 8) (_ bv6 8))))
(assert (not (= (_ bv2 8) x74)))
(assert (not (= (_ bv2 8) x84)))
(assert (not (= (_ bv6 8) x74)))
(assert (not (= (_ bv6 8) x84)))
(assert (not (= x74 x84)))
(assert (not (= x05 (_ bv1 8))))
(assert (not (= x05 x25)))
(assert (not (= x05 (_ bv5 8))))
(assert (not (= x05 (_ bv8 8))))
(assert (not (= x05 (_ bv7 8))))
(assert (not (= x05 x65)))
(assert (not (= x05 x75)))
(assert (not (= x05 x85)))
(assert (not (= (_ bv1 8) x25)))
(assert (not (= (_ bv1 8) (_ bv5 8))))
(assert (not (= (_ bv1 8) (_ bv8 8))))
(assert (not (= (_ bv1 8) (_ bv7 8))))
(assert (not (= (_ bv1 8) x65)))
(assert (not (= (_ bv1 8) x75)))
(assert (not (= (_ bv1 8) x85)))
(assert (not (= x25 (_ bv5 8))))
(assert (not (= x25 (_ bv8 8))))
(assert (not (= x25 (_ bv7 8))))
(assert (not (= x25 x65)))
(assert (not (= x25 x75)))
(assert (not (= x25 x85)))
(assert (not (= (_ bv5 8) (_ bv8 8))))
(assert (not (= (_ bv5 8) (_ bv7 8))))
(assert (not (= (_ bv5 8) x65)))
(assert (not (= (_ bv5 8) x75)))
(assert (not (= (_ bv5 8) x85)))
(assert (not (= (_ bv8 8) (_ bv7 8))))
(assert (not (= (_ bv8 8) x65)))
(assert (not (= (_ bv8 8) x75)))
(assert (not (= (_ bv8 8) x85)))
(assert (not (= (_ bv7 8) x65)))
(assert (not (= (_ bv7 8) x75)))
(assert (not (= (_ bv7 8) x85)))
(assert (not (= x65 x75)))
(assert (not (= x65 x85)))
(assert (not (= x75 x85)))
(assert (not (= x06 x16)))
(assert (not (= x06 x26)))
(assert (not (= x06 x36)))
(assert (not (= x06 x46)))
(assert (not (= x06 x56)))
(assert (not (= x06 x66)))
(assert (not (= x06 (_ bv3 8))))
(assert (not (= x06 x86)))
(assert (not (= x16 x26)))
(assert (not (= x16 x36)))
(assert (not (= x16 x46)))
(assert (not (= x16 x56)))
(assert (not (= x16 x66)))
(assert (not (= x16 (_ bv3 8))))
(assert (not (= x16 x86)))
(assert (not (= x26 x36)))
(assert (not (= x26 x46)))
(assert (not (= x26 x56)))
(assert (not (= x26 x66)))
(assert (not (= x26 (_ bv3 8))))
(assert (not (= x26 x86)))
(assert (not (= x36 x46)))
(assert (not (= x36 x56)))
(assert (not (= x36 x66)))
(assert (not (= x36 (_ bv3 8))))
(assert (not (= x36 x86)))
(assert (not (= x46 x56)))
(assert (not (= x46 x66)))
(assert (not (= x46 (_ bv3 8))))
(assert (not (= x46 x86)))
(assert (not (= x56 x66)))
(assert (not (= x56 (_ bv3 8))))
(assert (not (= x56 x86)))
(assert (not (= x66 (_ bv3 8))))
(assert (not (= x66 x86)))
(assert (not (= (_ bv3 8) x86)))
(assert (not (= (_ bv6 8) x17)))
(assert (not (= (_ bv6 8) (_ bv1 8))))
(assert (not (= (_ bv6 8) (_ bv8 8))))
(assert (not (= (_ bv6 8) (_ bv9 8))))
(assert (not (= (_ bv6 8) x57)))
(assert (not (= (_ bv6 8) x67)))
(assert (not (= (_ bv6 8) x77)))
(assert (not (= (_ bv6 8) (_ bv7 8))))
(assert (not (= x17 (_ bv1 8))))
(assert (not (= x17 (_ bv8 8))))
(assert (not (= x17 (_ bv9 8))))
(assert (not (= x17 x57)))
(assert (not (= x17 x67)))
(assert (not (= x17 x77)))
(assert (not (= x17 (_ bv7 8))))
(assert (not (= (_ bv1 8) (_ bv8 8))))
(assert (not (= (_ bv1 8) (_ bv9 8))))
(assert (not (= (_ bv1 8) x57)))
(assert (not (= (_ bv1 8) x67)))
(assert (not (= (_ bv1 8) x77)))
(assert (not (= (_ bv1 8) (_ bv7 8))))
(assert (not (= (_ bv8 8) (_ bv9 8))))
(assert (not (= (_ bv8 8) x57)))
(assert (not (= (_ bv8 8) x67)))
(assert (not (= (_ bv8 8) x77)))
(assert (not (= (_ bv8 8) (_ bv7 8))))
(assert (not (= (_ bv9 8) x57)))
(assert (not (= (_ bv9 8) x67)))
(assert (not (= (_ bv9 8) x77)))
(assert (not (= (_ bv9 8) (_ bv7 8))))
(assert (not (= x57 x67)))
(assert (not (= x57 x77)))
(assert (not (= x57 (_ bv7 8))))
(assert (not (= x67 x77)))
(assert (not (= x67 (_ bv7 8))))
(assert (not (= x77 (_ bv7 8))))
(assert (not (= x08 (_ bv5 8))))
(assert (not (= x08 x28)))
(assert (not (= x08 x38)))
(assert (not (= x08 x48)))
(assert (not (= x08 (_ bv4 8))))
(assert (not (= x08 x68)))
(assert (not (= x08 x78)))
(assert (not (= x08 (_ bv2 8))))
(assert (not (= (_ bv5 8) x28)))
(assert (not (= (_ bv5 8) x38)))
(assert (not (= (_ bv5 8) x48)))
(assert (not (= (_ bv5 8) (_ bv4 8))))
(assert (not (= (_ bv5 8) x68)))
(assert (not (= (_ bv5 8) x78)))
(assert (not (= (_ bv5 8) (_ bv2 8))))
(assert (not (= x28 x38)))
(assert (not (= x28 x48)))
(assert (not (= x28 (_ bv4 8))))
(assert (not (= x28 x68)))
(assert (not (= x28 x78)))
(assert (not (= x28 (_ bv2 8))))
(assert (not (= x38 x48)))
(assert (not (= x38 (_ bv4 8))))
(assert (not (= x38 x68)))
(assert (not (= x38 x78)))
(assert (not (= x38 (_ bv2 8))))
(assert (not (= x48 (_ bv4 8))))
(assert (not (= x48 x68)))
(assert (not (= x48 x78)))
(assert (not (= x48 (_ bv2 8))))
(assert (not (= (_ bv4 8) x68)))
(assert (not (= (_ bv4 8) x78)))
(assert (not (= (_ bv4 8) (_ bv2 8))))
(assert (not (= x68 x78)))
(assert (not (= x68 (_ bv2 8))))
(assert (not (= x78 (_ bv2 8))))
(assert (not (= x00 x01)))
(assert (not (= x00 x02)))
(assert (not (= x00 x10)))
(assert (not (= x00 (_ bv4 8))))
(assert (not (= x00 (_ bv3 8))))
(assert (not (= x00 (_ bv7 8))))
(assert (not (= x00 (_ bv9 8))))
(assert (not (= x00 x22)))
(assert (not (= x01 x02)))
(assert (not (= x01 x10)))
(assert (not (= x01 (_ bv4 8))))
(assert (not (= x01 (_ bv3 8))))
(assert (not (= x01 (_ bv7 8))))
(assert (not (= x01 (_ bv9 8))))
(assert (not (= x01 x22)))
(assert (not (= x02 x10)))
(assert (not (= x02 (_ bv4 8))))
(assert (not (= x02 (_ bv3 8))))
(assert (not (= x02 (_ bv7 8))))
(assert (not (= x02 (_ bv9 8))))
(assert (not (= x02 x22)))
(assert (not (= x10 (_ bv4 8))))
(assert (not (= x10 (_ bv3 8))))
(assert (not (= x10 (_ bv7 8))))
(assert (not (= x10 (_ bv9 8))))
(assert (not (= x10 x22)))
(assert (not (= (_ bv4 8) (_ bv3 8))))
(assert (not (= (_ bv4 8) (_ bv7 8))))
(assert (not (= (_ bv4 8) (_ bv9 8))))
(assert (not (= (_ bv4 8) x22)))
(assert (not (= (_ bv3 8) (_ bv7 8))))
(assert (not (= (_ bv3 8) (_ bv9 8))))
(assert (not (= (_ bv3 8) x22)))
(assert (not (= (_ bv7 8) (_ bv9 8))))
(assert (not (= (_ bv7 8) x22)))
(assert (not (= (_ bv9 8) x22)))
(assert (not (= (_ bv2 8) (_ bv4 8))))
(assert (not (= (_ bv2 8) x05)))
(assert (not (= (_ bv2 8) x13)))
(assert (not (= (_ bv2 8) (_ bv8 8))))
(assert (not (= (_ bv2 8) (_ bv1 8))))
(assert (not (= (_ bv2 8) (_ bv3 8))))
(assert (not (= (_ bv2 8) x24)))
(assert (not (= (_ bv2 8) x25)))
(assert (not (= (_ bv4 8) x05)))
(assert (not (= (_ bv4 8) x13)))
(assert (not (= (_ bv4 8) (_ bv8 8))))
(assert (not (= (_ bv4 8) (_ bv1 8))))
(assert (not (= (_ bv4 8) (_ bv3 8))))
(assert (not (= (_ bv4 8) x24)))
(assert (not (= (_ bv4 8) x25)))
(assert (not (= x05 x13)))
(assert (not (= x05 (_ bv8 8))))
(assert (not (= x05 (_ bv1 8))))
(assert (not (= x05 (_ bv3 8))))
(assert (not (= x05 x24)))
(assert (not (= x05 x25)))
(assert (not (= x13 (_ bv8 8))))
(assert (not (= x13 (_ bv1 8))))
(assert (not (= x13 (_ bv3 8))))
(assert (not (= x13 x24)))
(assert (not (= x13 x25)))
(assert (not (= (_ bv8 8) (_ bv1 8))))
(assert (not (= (_ bv8 8) (_ bv3 8))))
(assert (not (= (_ bv8 8) x24)))
(assert (not (= (_ bv8 8) x25)))
(assert (not (= (_ bv1 8) (_ bv3 8))))
(assert (not (= (_ bv1 8) x24)))
(assert (not (= (_ bv1 8) x25)))
(assert (not (= (_ bv3 8) x24)))
(assert (not (= (_ bv3 8) x25)))
(assert (not (= x24 x25)))
(assert (not (= x06 (_ bv6 8))))
(assert (not (= x06 x08)))
(assert (not (= x06 x16)))
(assert (not (= x06 x17)))
(assert (not (= x06 (_ bv5 8))))
(assert (not (= x06 x26)))
(assert (not (= x06 (_ bv1 8))))
(assert (not (= x06 x28)))
(assert (not (= (_ bv6 8) x08)))
(assert (not (= (_ bv6 8) x16)))
(assert (not (= (_ bv6 8) x17)))
(assert (not (= (_ bv6 8) (_ bv5 8))))
(assert (not (= (_ bv6 8) x26)))
(assert (not (= (_ bv6 8) (_ bv1 8))))
(assert (not (= (_ bv6 8) x28)))
(assert (not (= x08 x16)))
(assert (not (= x08 x17)))
(assert (not (= x08 (_ bv5 8))))
(assert (not (= x08 x26)))
(assert (not (= x08 (_ bv1 8))))
(assert (not (= x08 x28)))
(assert (not (= x16 x17)))
(assert (not (= x16 (_ bv5 8))))
(assert (not (= x16 x26)))
(assert (not (= x16 (_ bv1 8))))
(assert (not (= x16 x28)))
(assert (not (= x17 (_ bv5 8))))
(assert (not (= x17 x26)))
(assert (not (= x17 (_ bv1 8))))
(assert (not (= x17 x28)))
(assert (not (= (_ bv5 8) x26)))
(assert (not (= (_ bv5 8) (_ bv1 8))))
(assert (not (= (_ bv5 8) x28)))
(assert (not (= x26 (_ bv1 8))))
(assert (not (= x26 x28)))
(assert (not (= (_ bv1 8) x28)))
(assert (not (= x30 (_ bv1 8))))
(assert (not (= x30 (_ bv6 8))))
(assert (not (= x30 (_ bv2 8))))
(assert (not (= x30 x41)))
(assert (not (= x30 x42)))
(assert (not (= x30 x50)))
(assert (not (= x30 x51)))
(assert (not (= x30 (_ bv5 8))))
(assert (not (= (_ bv1 8) (_ bv6 8))))
(assert (not (= (_ bv1 8) (_ bv2 8))))
(assert (not (= (_ bv1 8) x41)))
(assert (not (= (_ bv1 8) x42)))
(assert (not (= (_ bv1 8) x50)))
(assert (not (= (_ bv1 8) x51)))
(assert (not (= (_ bv1 8) (_ bv5 8))))
(assert (not (= (_ bv6 8) (_ bv2 8))))
(assert (not (= (_ bv6 8) x41)))
(assert (not (= (_ bv6 8) x42)))
(assert (not (= (_ bv6 8) x50)))
(assert (not (= (_ bv6 8) x51)))
(assert (not (= (_ bv6 8) (_ bv5 8))))
(assert (not (= (_ bv2 8) x41)))
(assert (not (= (_ bv2 8) x42)))
(assert (not (= (_ bv2 8) x50)))
(assert (not (= (_ bv2 8) x51)))
(assert (not (= (_ bv2 8) (_ bv5 8))))
(assert (not (= x41 x42)))
(assert (not (= x41 x50)))
(assert (not (= x41 x51)))
(assert (not (= x41 (_ bv5 8))))
(assert (not (= x42 x50)))
(assert (not (= x42 x51)))
(assert (not (= x42 (_ bv5 8))))
(assert (not (= x50 x51)))
(assert (not (= x50 (_ bv5 8))))
(assert (not (= x51 (_ bv5 8))))
(assert (not (= x33 x34)))
(assert (not (= x33 (_ bv5 8))))
(assert (not (= x33 (_ bv1 8))))
(assert (not (= x33 x44)))
(assert (not (= x33 (_ bv8 8))))
(assert (not (= x33 x53)))
(assert (not (= x33 (_ bv2 8))))
(assert (not (= x33 (_ bv7 8))))
(assert (not (= x34 (_ bv5 8))))
(assert (not (= x34 (_ bv1 8))))
(assert (not (= x34 x44)))
(assert (not (= x34 (_ bv8 8))))
(assert (not (= x34 x53)))
(assert (not (= x34 (_ bv2 8))))
(assert (not (= x34 (_ bv7 8))))
(assert (not (= (_ bv5 8) (_ bv1 8))))
(assert (not (= (_ bv5 8) x44)))
(assert (not (= (_ bv5 8) (_ bv8 8))))
(assert (not (= (_ bv5 8) x53)))
(assert (not (= (_ bv5 8) (_ bv2 8))))
(assert (not (= (_ bv5 8) (_ bv7 8))))
(assert (not (= (_ bv1 8) x44)))
(assert (not (= (_ bv1 8) (_ bv8 8))))
(assert (not (= (_ bv1 8) x53)))
(assert (not (= (_ bv1 8) (_ bv2 8))))
(assert (not (= (_ bv1 8) (_ bv7 8))))
(assert (not (= x44 (_ bv8 8))))
(assert (not (= x44 x53)))
(assert (not (= x44 (_ bv2 8))))
(assert (not (= x44 (_ bv7 8))))
(assert (not (= (_ bv8 8) x53)))
(assert (not (= (_ bv8 8) (_ bv2 8))))
(assert (not (= (_ bv8 8) (_ bv7 8))))
(assert (not (= x53 (_ bv2 8))))
(assert (not (= x53 (_ bv7 8))))
(assert (not (= (_ bv2 8) (_ bv7 8))))
(assert (not (= x36 (_ bv8 8))))
(assert (not (= x36 x38)))
(assert (not (= x36 x46)))
(assert (not (= x36 (_ bv9 8))))
(assert (not (= x36 x48)))
(assert (not (= x36 x56)))
(assert (not (= x36 x57)))
(assert (not (= x36 (_ bv4 8))))
(assert (not (= (_ bv8 8) x38)))
(assert (not (= (_ bv8 8) x46)))
(assert (not (= (_ bv8 8) (_ bv9 8))))
(assert (not (= (_ bv8 8) x48)))
(assert (not (= (_ bv8 8) x56)))
(assert (not (= (_ bv8 8) x57)))
(assert (not (= (_ bv8 8) (_ bv4 8))))
(assert (not (= x38 x46)))
(assert (not (= x38 (_ bv9 8))))
(assert (not (= x38 x48)))
(assert (not (= x38 x56)))
(assert (not (= x38 x57)))
(assert (not (= x38 (_ bv4 8))))
(assert (not (= x46 (_ bv9 8))))
(assert (not (= x46 x48)))
(assert (not (= x46 x56)))
(assert (not (= x46 x57)))
(assert (not (= x46 (_ bv4 8))))
(assert (not (= (_ bv9 8) x48)))
(assert (not (= (_ bv9 8) x56)))
(assert (not (= (_ bv9 8) x57)))
(assert (not (= (_ bv9 8) (_ bv4 8))))
(assert (not (= x48 x56)))
(assert (not (= x48 x57)))
(assert (not (= x48 (_ bv4 8))))
(assert (not (= x56 x57)))
(assert (not (= x56 (_ bv4 8))))
(assert (not (= x57 (_ bv4 8))))
(assert (not (= (_ bv4 8) (_ bv2 8))))
(assert (not (= (_ bv4 8) x62)))
(assert (not (= (_ bv4 8) x70)))
(assert (not (= (_ bv4 8) x71)))
(assert (not (= (_ bv4 8) (_ bv1 8))))
(assert (not (= (_ bv4 8) (_ bv8 8))))
(assert (not (= (_ bv4 8) (_ bv3 8))))
(assert (not (= (_ bv4 8) x82)))
(assert (not (= (_ bv2 8) x62)))
(assert (not (= (_ bv2 8) x70)))
(assert (not (= (_ bv2 8) x71)))
(assert (not (= (_ bv2 8) (_ bv1 8))))
(assert (not (= (_ bv2 8) (_ bv8 8))))
(assert (not (= (_ bv2 8) (_ bv3 8))))
(assert (not (= (_ bv2 8) x82)))
(assert (not (= x62 x70)))
(assert (not (= x62 x71)))
(assert (not (= x62 (_ bv1 8))))
(assert (not (= x62 (_ bv8 8))))
(assert (not (= x62 (_ bv3 8))))
(assert (not (= x62 x82)))
(assert (not (= x70 x71)))
(assert (not (= x70 (_ bv1 8))))
(assert (not (= x70 (_ bv8 8))))
(assert (not (= x70 (_ bv3 8))))
(assert (not (= x70 x82)))
(assert (not (= x71 (_ bv1 8))))
(assert (not (= x71 (_ bv8 8))))
(assert (not (= x71 (_ bv3 8))))
(assert (not (= x71 x82)))
(assert (not (= (_ bv1 8) (_ bv8 8))))
(assert (not (= (_ bv1 8) (_ bv3 8))))
(assert (not (= (_ bv1 8) x82)))
(assert (not (= (_ bv8 8) (_ bv3 8))))
(assert (not (= (_ bv8 8) x82)))
(assert (not (= (_ bv3 8) x82)))
(assert (not (= (_ bv9 8) (_ bv6 8))))
(assert (not (= (_ bv9 8) x65)))
(assert (not (= (_ bv9 8) x73)))
(assert (not (= (_ bv9 8) x74)))
(assert (not (= (_ bv9 8) x75)))
(assert (not (= (_ bv9 8) x83)))
(assert (not (= (_ bv9 8) x84)))
(assert (not (= (_ bv9 8) x85)))
(assert (not (= (_ bv6 8) x65)))
(assert (not (= (_ bv6 8) x73)))
(assert (not (= (_ bv6 8) x74)))
(assert (not (= (_ bv6 8) x75)))
(assert (not (= (_ bv6 8) x83)))
(assert (not (= (_ bv6 8) x84)))
(assert (not (= (_ bv6 8) x85)))
(assert (not (= x65 x73)))
(assert (not (= x65 x74)))
(assert (not (= x65 x75)))
(assert (not (= x65 x83)))
(assert (not (= x65 x84)))
(assert (not (= x65 x85)))
(assert (not (= x73 x74)))
(assert (not (= x73 x75)))
(assert (not (= x73 x83)))
(assert (not (= x73 x84)))
(assert (not (= x73 x85)))
(assert (not (= x74 x75)))
(assert (not (= x74 x83)))
(assert (not (= x74 x84)))
(assert (not (= x74 x85)))
(assert (not (= x75 x83)))
(assert (not (= x75 x84)))
(assert (not (= x75 x85)))
(assert (not (= x83 x84)))
(assert (not (= x83 x85)))
(assert (not (= x84 x85)))
(assert (not (= x66 x67)))
(assert (not (= x66 x68)))
(assert (not (= x66 (_ bv3 8))))
(assert (not (= x66 x77)))
(assert (not (= x66 x78)))
(assert (not (= x66 x86)))
(assert (not (= x66 (_ bv7 8))))
(assert (not (= x66 (_ bv2 8))))
(assert (not (= x67 x68)))
(assert (not (= x67 (_ bv3 8))))
(assert (not (= x67 x77)))
(assert (not (= x67 x78)))
(assert (not (= x67 x86)))
(assert (not (= x67 (_ bv7 8))))
(assert (not (= x67 (_ bv2 8))))
(assert (not (= x68 (_ bv3 8))))
(assert (not (= x68 x77)))
(assert (not (= x68 x78)))
(assert (not (= x68 x86)))
(assert (not (= x68 (_ bv7 8))))
(assert (not (= x68 (_ bv2 8))))
(assert (not (= (_ bv3 8) x77)))
(assert (not (= (_ bv3 8) x78)))
(assert (not (= (_ bv3 8) x86)))
(assert (not (= (_ bv3 8) (_ bv7 8))))
(assert (not (= (_ bv3 8) (_ bv2 8))))
(assert (not (= x77 x78)))
(assert (not (= x77 x86)))
(assert (not (= x77 (_ bv7 8))))
(assert (not (= x77 (_ bv2 8))))
(assert (not (= x78 x86)))
(assert (not (= x78 (_ bv7 8))))
(assert (not (= x78 (_ bv2 8))))
(assert (not (= x86 (_ bv7 8))))
(assert (not (= x86 (_ bv2 8))))
(assert (not (= (_ bv7 8) (_ bv2 8))))
(check-sat)
(exit)
